Maximize
 obj: 0 X1
Subject To
 c1:
  + 1 X94 + 1 X85 + 1 X44 + 1 X53 + 1 X19 + 1 X97
  <= 1
 c2:
  + 1 X1 + 1 X82 + 1 X21 + 1 X37 + 1 X98 + 1 X69 + 1 X64 + 1 X14
  + 1 X53 + 1 X45 + 1 X47 + 1 X62 + 1 X96 + 1 X97 + 1 X63 + 1 X11
  <= 1
 c3:
  + 1 X98 + 1 X24 + 1 X13 + 1 X69 + 1 X74 + 1 X61 + 1 X97 + 1 X46
  + 1 X90 + 1 X78 + 1 X63 + 1 X21 + 1 X23 + 1 X68 + 1 X56 + 1 X39
  <= 1
 c4:
  + 1 X64 + 1 X23 + 1 X91 + 1 X58 + 1 X35 + 1 X85 + 1 X61 + 1 X30
  + 1 X11 + 1 X20 + 1 X44 + 1 X87 + 1 X28 + 1 X4 + 1 X66 + 1 X83
  + 1 X96 + 1 X12 + 1 X36
  <= 1
 c5:
  + 1 X87 + 1 X84 + 1 X68 + 1 X16 + 1 X76 + 1 X70 + 1 X50 + 1 X28
  + 1 X58 + 1 X98 + 1 X93 + 1 X100 + 1 X89 + 1 X51 + 1 X2
  <= 1
 c6:
  + 1 X39 + 1 X25 + 1 X85 + 1 X77 + 1 X83 + 1 X21 + 1 X81 + 1 X23
  + 1 X10 + 1 X52 + 1 X91 + 1 X41 + 1 X34 + 1 X95 + 1 X26 + 1 X43
  + 1 X79 + 1 X47 + 1 X51 + 1 X29
  <= 1
 c7:
  + 1 X42 + 1 X13 + 1 X77 + 1 X73 + 1 X53 + 1 X86 + 1 X68 + 1 X58
  + 1 X78 + 1 X79 + 1 X98 + 1 X26 + 1 X29 + 1 X4 + 1 X25 + 1 X8
  + 1 X38
  <= 1
 c8:
  + 1 X7 + 1 X52 + 1 X92 + 1 X90 + 1 X54 + 1 X4 + 1 X45 + 1 X3
  + 1 X70 + 1 X96 + 1 X29 + 1 X21 + 1 X14 + 1 X57 + 1 X69 + 1 X78
  + 1 X84
  <= 1
 c9:
  + 1 X98 + 1 X27 + 1 X32 + 1 X57 + 1 X14 + 1 X59 + 1 X44 + 1 X47
  + 1 X52 + 1 X58 + 1 X92 + 1 X38 + 1 X63 + 1 X13 + 1 X6 + 1 X45
  + 1 X7 + 1 X95 + 1 X90 + 1 X34
  <= 1
 c10:
  + 1 X45 + 1 X7 + 1 X37 + 1 X65 + 1 X99 + 1 X41 + 1 X14 + 1 X100
  + 1 X93 + 1 X55 + 1 X60 + 1 X83 + 1 X36 + 1 X54 + 1 X85
  <= 1
 c11:
  + 1 X33 + 1 X86 + 1 X92 + 1 X31 + 1 X12 + 1 X22 + 1 X21 + 1 X68
  + 1 X58 + 1 X30 + 1 X43 + 1 X88 + 1 X7 + 1 X48 + 1 X80 + 1 X45
  + 1 X81 + 1 X15 + 1 X57 + 1 X79
  <= 1
 c12:
  + 1 X90 + 1 X96 + 1 X28 + 1 X37
  <= 1
 c13:
  + 1 X100 + 1 X92 + 1 X30 + 1 X7 + 1 X13 + 1 X60 + 1 X22 + 1 X2
  + 1 X11 + 1 X61 + 1 X83 + 1 X12 + 1 X57 + 1 X96 + 1 X89 + 1 X65
  + 1 X37 + 1 X36
  <= 1
 c14:
  + 1 X56 + 1 X77 + 1 X84 + 1 X24 + 1 X53 + 1 X27
  <= 1
 c15:
  + 1 X68 + 1 X79 + 1 X47 + 1 X3 + 1 X51 + 1 X2 + 1 X69 + 1 X56
  + 1 X84 + 1 X93 + 1 X21 + 1 X11
  <= 1
 c16:
  + 1 X13 + 1 X15 + 1 X90 + 1 X20 + 1 X11 + 1 X85 + 1 X3 + 1 X14
  <= 1
 c17:
  + 1 X85 + 1 X83 + 1 X23 + 1 X16 + 1 X64 + 1 X36 + 1 X41 + 1 X91
  + 1 X26 + 1 X95 + 1 X22 + 1 X60 + 1 X8 + 1 X70 + 1 X4 + 1 X14
  + 1 X82 + 1 X53 + 1 X86 + 1 X78
  <= 1
 c18:
  + 1 X69 + 1 X45 + 1 X23 + 1 X40 + 1 X29 + 1 X76 + 1 X20 + 1 X19
  + 1 X48 + 1 X58 + 1 X57 + 1 X68
  <= 1
 c19:
  + 1 X94 + 1 X5 + 1 X43 + 1 X45 + 1 X51 + 1 X10 + 1 X41 + 1 X14
  + 1 X77 + 1 X15
  <= 1
 c20:
  + 1 X40 + 1 X20 + 1 X26 + 1 X41 + 1 X31 + 1 X49 + 1 X28
  <= 1
 obj1:
  + 15 X1 + 100 X2 + 29 X3 + 38 X4 + 79 X5 + 26 X6 + 85 X7 + 95 X8
  + 82 X9 + 1 X10 + 31 X11 + 61 X12 + 36 X13 + 83 X14 + 96 X15 + 24 X16
  + 66 X17 + 59 X18 + 91 X19 + 31 X20 + 52 X21 + 50 X22 + 44 X23 + 92 X24
  + 90 X25 + 48 X26 + 87 X27 + 56 X28 + 60 X29 + 64 X30 + 34 X31 + 72 X32
  + 10 X33 + 48 X34 + 100 X35 + 69 X36 + 53 X37 + 58 X38 + 44 X39 + 8 X40
  + 56 X41 + 72 X42 + 74 X43 + 41 X44 + 84 X45 + 33 X46 + 1 X47 + 43 X48
  + 89 X49 + 26 X50 + 97 X51 + 1 X52 + 45 X53 + 47 X54 + 85 X55 + 74 X56
  + 5 X57 + 57 X58 + 51 X59 + 87 X60 + 11 X61 + 47 X62 + 100 X63 + 55 X64
  + 99 X65 + 93 X66 + 80 X67 + 85 X68 + 82 X69 + 17 X70 + 92 X71 + 5 X72
  + 67 X73 + 9 X74 + 27 X75 + 95 X76 + 43 X77 + 48 X78 + 9 X79 + 24 X80
  + 72 X81 + 25 X82 + 23 X83 + 37 X84 + 33 X85 + 36 X86 + 20 X87 + 48 X88
  + 25 X89 + 7 X90 + 41 X91 + 94 X92 + 90 X93 + 97 X94 + 72 X95 + 79 X96
  + 58 X97 + 94 X98 + 45 X99 + 82 X100
  >= 1
 obj2:
  + 98 X1 + 54 X2 + 58 X3 + 61 X4 + 5 X5 + 2 X6 + 57 X7 + 66 X8
  + 24 X9 + 63 X10 + 36 X11 + 81 X12 + 75 X13 + 48 X14 + 16 X15 + 70 X16
  + 85 X17 + 6 X18 + 26 X19 + 91 X20 + 22 X21 + 69 X22 + 53 X23 + 29 X24
  + 100 X25 + 15 X26 + 11 X27 + 61 X28 + 59 X29 + 1 X30 + 70 X31 + 13 X32
  + 29 X33 + 9 X34 + 12 X35 + 68 X36 + 4 X37 + 59 X38 + 55 X39 + 44 X40
  + 62 X41 + 77 X42 + 23 X43 + 69 X44 + 45 X45 + 41 X46 + 41 X47 + 83 X48
  + 33 X49 + 72 X50 + 82 X51 + 28 X52 + 49 X53 + 16 X54 + 67 X55 + 18 X56
  + 57 X57 + 79 X58 + 98 X59 + 87 X60 + 35 X61 + 8 X62 + 73 X63 + 29 X64
  + 35 X65 + 83 X66 + 35 X67 + 73 X68 + 36 X69 + 77 X70 + 17 X71 + 8 X72
  + 4 X73 + 77 X74 + 57 X75 + 49 X76 + 40 X77 + 65 X78 + 59 X79 + 42 X80
  + 97 X81 + 93 X82 + 95 X83 + 54 X84 + 59 X85 + 89 X86 + 98 X87 + 41 X88
  + 85 X89 + 14 X90 + 2 X91 + 86 X92 + 29 X93 + 42 X94 + 19 X95 + 96 X96
  + 39 X97 + 42 X98 + 76 X99 + 87 X100
  >= 2
 obj3:
  + 98 X1 + 100 X2 + 91 X3 + 2 X4 + 54 X5 + 80 X6 + 51 X7 + 84 X8
  + 81 X9 + 22 X10 + 2 X11 + 51 X12 + 87 X13 + 57 X14 + 59 X15 + 99 X16
  + 94 X17 + 87 X18 + 27 X19 + 12 X20 + 81 X21 + 53 X22 + 41 X23 + 37 X24
  + 14 X25 + 20 X26 + 61 X27 + 65 X28 + 63 X29 + 94 X30 + 24 X31 + 41 X32
  + 86 X33 + 61 X34 + 50 X35 + 90 X36 + 23 X37 + 79 X38 + 81 X39 + 74 X40
  + 73 X41 + 55 X42 + 10 X43 + 6 X44 + 19 X45 + 54 X46 + 95 X47 + 24 X48
  + 13 X49 + 98 X50 + 50 X51 + 30 X52 + 65 X53 + 62 X54 + 84 X55 + 78 X56
  + 92 X57 + 42 X58 + 89 X59 + 29 X60 + 29 X61 + 21 X62 + 81 X63 + 88 X64
  + 50 X65 + 10 X66 + 43 X67 + 87 X68 + 62 X69 + 49 X70 + 73 X71 + 66 X72
  + 33 X73 + 22 X74 + 38 X75 + 68 X76 + 5 X77 + 79 X78 + 40 X79 + 7 X80
  + 31 X81 + 5 X82 + 39 X83 + 64 X84 + 69 X85 + 21 X86 + 57 X87 + 61 X88
  + 84 X89 + 85 X90 + 37 X91 + 64 X92 + 21 X93 + 74 X94 + 43 X95 + 38 X96
  + 21 X97 + 66 X98 + 55 X99 + 64 X100
  >= 3
Binary
 X1
 X2
 X3
 X4
 X5
 X6
 X7
 X8
 X9
 X10
 X11
 X12
 X13
 X14
 X15
 X16
 X17
 X18
 X19
 X20
 X21
 X22
 X23
 X24
 X25
 X26
 X27
 X28
 X29
 X30
 X31
 X32
 X33
 X34
 X35
 X36
 X37
 X38
 X39
 X40
 X41
 X42
 X43
 X44
 X45
 X46
 X47
 X48
 X49
 X50
 X51
 X52
 X53
 X54
 X55
 X56
 X57
 X58
 X59
 X60
 X61
 X62
 X63
 X64
 X65
 X66
 X67
 X68
 X69
 X70
 X71
 X72
 X73
 X74
 X75
 X76
 X77
 X78
 X79
 X80
 X81
 X82
 X83
 X84
 X85
 X86
 X87
 X88
 X89
 X90
 X91
 X92
 X93
 X94
 X95
 X96
 X97
 X98
 X99
 X100
End
